% Auto-generated by scripts/generate_dzn.py
% problem_type   = regex
% instance       = regex_56
% source_json    = instances_json/2_high_blowup/regex_56.json
% blowup         = 122.94117647058823
% representation = NFA

mode = 1;

var_count = 30;
Q = 17;
S = 2;
q0 = 1;
F = {17};
d_dfa = array2d(1..17, 1..2, [
  0, 0,
  0, 0,
  0, 0,
  0, 0,
  0, 0,
  0, 0,
  0, 0,
  0, 0,
  0, 0,
  0, 0,
  0, 0,
  0, 0,
  0, 0,
  0, 0,
  0, 0,
  0, 0,
  0, 0
]);
d_nfa = array2d(1..17, 1..2, [
  {1, 2}, {1},
  {3}, {},
  {4}, {},
  {5}, {5},
  {6}, {6},
  {7}, {7},
  {8}, {8},
  {9}, {9},
  {10}, {10},
  {11}, {11},
  {12}, {12},
  {13}, {13},
  {14}, {14},
  {15}, {15},
  {16}, {16},
  {17}, {17},
  {}, {}
]);
